n = 29;
lu = [|263, 813
      |-249, 410
      |-780, 432
      |-411, 497
      |-742, -315
      |-71, -28
      |-567, 472
      |-675, 104
      |-826, 228
      |-789, -345
      |-693, -514
      |386, 830
      |-19, 246
      |-128, 499
      |-703, 255
      |-793, -19
      |-332, 808
      |311, 535
      |-268, 721
      |37, 317
      |-646, 539
      |-271, 467
      |-613, 310
      |171, 415
      |-577, -208
      |-209, -203
      |-325, 197
      |-677, -558
      |-343, 591|];
